N = 5;
H = 5;
T = 2;

avail = array3d(1..N, 1..H, 1..T, [9, 10, 6, 0, 7, 7, 8, 7, 8, 5, 8, 9, 5, 1, 7, 3, 2, 3, 1, 0, 4, 2, 5, 2, 0, 3, 10, 1, 9, 10, 3, 1, 8, 4, 6, 10, 1, 6, 0, 1, 0, 8, 8, 0, 4, 10, 6, 9, 4, 8]);

r = array2d(1..H, 1..T, [1, 2, 0, 1, 3, 1, 1, 1, 2, 1]);
